0001 10
0002 4
0003 22
0004 23
0005 1
0006 15
0007 13
0008 21
0009 5
0010 10
0011 5
0012 17
0013 22
0014 9
0015 23
0016 1
0017 13
0018 5
0019 13
0020 1
0021 20
0022 20
0023 5
0024 7
0025 6
0026 1
0027 7
0028 21
0029 22
0030 12
0031 1
0032 9
0033 15
0034 20
0035 11
0036 19
0037 21
0038 8
0039 13
0040 7
0041 6
0042 18
0043 1
0044 15
0045 12
0046 23
0047 20
0048 23
0049 8
0050 3
0051 1
0052 9
0053 15
0054 9
0055 17
0056 1
0057 16
0058 9
0059 23
0060 19
0061 8
0062 23
0063 3
0064 3
0065 16
0066 6
0067 1
0068 4
0069 13
0070 18
0071 13
0072 7
0073 8
0074 6
0075 21
0076 22
0077 12
0078 19
0079 16
0080 19
0081 6
0082 14
0083 1
0084 18
0085 10
0086 17
0087 6
0088 8
0089 23
0090 14
0091 1
0092 3
0093 11
0094 9
0095 10
0096 8
0097 21
0098 6
0099 9
0100 1
0101 14
0102 17
0103 19
0104 23
0105 15
0106 22
0107 3
0108 5
0109 11
0110 5
0111 12
0112 9
0113 17
0114 22
0115 11
0116 19
0117 13
0118 19
0119 10
0120 4
0121 4
0122 2
0123 6
0124 22
0125 13
0126 16
0127 3
0128 10
0129 15
0130 12
0131 5
0132 16
0133 21
0134 11
0135 23
0136 5
0137 15
0138 9
0139 17
0140 3
0141 22
0142 16
0143 4
0144 10
0145 19
0146 9
0147 15
0148 23
0149 15
0150 7
0151 20
0152 15
0153 12
0154 13
0155 1
0156 13
0157 15
0158 2
0159 9
0160 16
0161 22
0162 3
0163 21
0164 14
0165 7
0166 11
0167 2
0168 7
0169 5
0170 19
0171 18
0172 4
0173 2
0174 2
0175 11
0176 4
0177 3
0178 7
0179 1
0180 15
0181 12
0182 22
0183 12
0184 2
0185 1
0186 7
0187 20
0188 19
0189 13
0190 21
0191 7
0192 1
0193 1
0194 17
0195 4
0196 22
0197 9
0198 13
0199 21
0200 13
0201 21
0202 23
0203 9
0204 20
0205 15
0206 8
0207 17
0208 4
0209 11
0210 2
0211 6
0212 1
0213 23
0214 23
0215 23
0216 23
0217 1
0218 2
0219 3
0220 18
0221 2
0222 10
0223 15
0224 7
0225 21
0226 17
0227 12
0228 1
0229 23
0230 19
0231 8
0232 3
0233 20
0234 18
0235 17
0236 22
0237 1
0238 5
0239 16
0240 10
0241 16
0242 4
0243 22
0244 10
0245 16
0246 16
0247 12
0248 6
0249 15
0250 22
0251 15
0252 9
0253 1
0254 2
0255 21
0256 14
0257 13
0258 14
0259 23
0260 8
0261 19